\ LP format - for model browsing. Use MPS format to capture full model detail.
Minimize
  7873 x[0] + 4611 x[1] + 8359 x[2] + 5557 x[3] + 1106 x[4]
Subject To
 covering[5]: x[0] + x[4] >= 1
 covering[6]: x[0] + x[1] + x[4] >= 1
 covering[7]: x[3] >= 1
 covering[8]: x[0] + x[1] + x[2] + x[3] + x[4] >= 1
 covering[9]: x[1] + x[3] >= 1
 covering[10]: x[0] + x[2] + x[3] + x[4] >= 1
 covering[11]: x[0] + x[1] + x[2] >= 1
 covering[12]: x[0] + x[4] >= 1
 covering[13]: x[3] >= 1
 covering[14]: x[1] + x[4] >= 1
 covering[15]: x[0] + x[1] + x[2] >= 1
 covering[16]: x[0] + x[1] >= 1
 covering[17]: x[0] + x[1] + x[2] + x[4] >= 1
 covering[18]: x[0] + x[1] >= 1
 covering[19]: x[1] >= 1
 covering[20]: x[0] + x[2] + x[3] >= 1
 covering[21]: x[2] + x[3] + x[4] >= 1
 covering[22]: x[0] + x[1] + x[2] + x[3] >= 1
 covering[23]: x[0] >= 1
 covering[24]: x[3] + x[4] >= 1
 covering[25]: x[1] + x[2] + x[3] + x[4] >= 1
 covering[26]: x[2] + x[4] >= 1
 covering[27]: x[0] + x[2] + x[3] >= 1
 covering[28]: x[3] + x[4] >= 1
 covering[29]: x[0] + x[3] >= 1
 covering[30]: x[2] + x[4] >= 1
 covering[31]: x[1] + x[3] >= 1
 covering[32]: x[0] + x[2] >= 1
 covering[33]: x[4] >= 1
 covering[34]: x[1] >= 1
Bounds
Binaries
 x[0] x[1] x[2] x[3] x[4]
End
